
%FILE DATA:	Soccer Computational Problem for MiniZinc Models	%
%AUTHOR:	Jack Wall	%
%CONTACT:  	116397063@umail.ucc.ie			%
%LAST UPDATE:	03/19/2020, 16:23:28						%
%DESCRIPTION: 	288 games played with 18 games left				%


n=18; %number of teams

%Games to play
games=[|17,15|2,13|3,16|4,6|12,4|11,12|14,10|6,13|18,9|7,3|15,12|12,9|3,18|6,11|8,5|15,1|11,18|5,6|];

%Initial points
iPoints=[31,39,30,48,31,41,50,55,40,54,43,42,41,29,50,45,52,39];

%POSITION CONSTRAINTS
% [|teamID, operator, position|...]
% operators index:
%  1 for =  operator
%  2 for >  operator
%  3 for >= operator
%  4 for <  operator
%  5 for <= operator
positionConstraints=[|8,3,1|10,3,2|15,2,2|];